
  16    0


   0  10 2 3 6 7 10 11 12 13 14 15 
   4   2 9 5 
   6   1 4 
   7   1 8 
   5   1 8 
   5   1 8 
   3   1 8 
  10   1 16
  10   1 16
   1   1 16
   7   1 16
   5   1 16
   2   1 16
   4   1 16
   7   1 16
   0   0 
